/*
  Objective function
     Min: Z = SUM[k=1 to 2](SUM[i,j = 1,1 to 21,21; i > j](C_ij X_ijk)); Where C_ij is the distance between farms i & j
*/
/*
    k = 1 : Distances multiplied by the binary edge coefficients for day one
    Convention is X_Farm1_Farm2_Day
*/
min: 42.4264X_2_1_1 + 110.4536X_3_1_1 + 80.6226X_4_1_1 + 102.9563X_5_1_1 + 53.8516X_6_1_1 + 80.6226X_7_1_1 + 60X_8_1_1 + 67.082X_9_1_1 + 31.6228X_10_1_1 + 60X_11_1_1 + 72.111X_12_1_1 + 53.8516X_13_1_1 + 82.4621X_14_1_1 + 116.619X_15_1_1 + 80.6226X_16_1_1 + 31.6228X_17_1_1 + 78.1025X_18_1_1 + 92.1954X_19_1_1 + 78.1025X_20_1_1 + 64.0312X_21_1_1 +

89X_3_2_1 + 80.6226X_4_2_1 + 63.2456X_5_2_1 + 53.8516X_6_2_1 + 100.4988X_7_2_1 + 94.8683X_8_2_1 + 108.1665X_9_2_1 + 63.2456X_10_2_1 + 94.8683X_11_2_1 + 90.5539X_12_2_1 + 53.8516X_13_2_1 + 50.9902X_14_2_1 + 114.0175X_15_2_1 + 64.0312X_16_2_1 + 20X_17_2_1 + 36.0555X_18_2_1 + 78.1025X_19_2_1 + 85.44X_20_2_1 + 106.3015X_21_2_1 + 

50X_4_3_1 + 63.2456X_5_3_1 + 143.1782X_6_3_1 + 186.8154X_7_3_1 + 120.8305X_8_3_1 + 171.1724X_9_3_1 + 141.4214X_10_3_1 + 170.2939X_11_3_1 + 86.0233X_12_3_1 + 60.8276X_13_3_1 + 42.4264X_14_3_1 + 50.9902X_15_3_1 + 30X_16_3_1 + 107.7033X_17_3_1 + 92.1954X_18_3_1 + 22.3607X_19_3_1 + 174.6425X_20_3_1 + 155.2417X_21_3_1 +

92.1954X_5_4_1 + 127.2792X_6_4_1 + 161.2452X_7_4_1 + 72.8011X_8_4_1 + 130.384X_9_4_1 + 111.8034X_10_4_1 + 136.0147X_11_4_1 + 36.0555X_12_4_1 + 28.2843X_13_4_1 + 60.8276X_14_4_1 + 36.0555X_15_4_1 + 31.6228X_16_4_1 + 92.1954X_17_4_1 + 101.9804X_18_4_1 + 28.2843X_19_4_1 + 156.205X_20_4_1 + 110.4536X_21_4_1 +

110X_6_5_1 + 160.3122X_7_5_1 + 142.1267X_8_5_1 + 170X_9_5_1 + 126.4911X_10_5_1 + 158.1139X_11_5_1 + 120.8305X_12_5_1 + 80.6226X_13_5_1 + 31.6228X_14_5_1 + 110.4536X_15_5_1 + 60.8276X_16_5_1 + 82.4621X_17_5_1 + 41.2311X_18_5_1 + 70X_19_5_1 + 140.3567X_20_5_1 + 164.0122X_21_5_1 +

50.9902X_7_6_1 + 111.8034X_8_6_1 + 89.4427X_9_6_1 + 41.2311X_10_6_1 + 64.0312X_11_6_1 + 125.2996X_12_6_1 + 98.9949X_13_6_1 + 104.4031X_14_6_1 + 162.7882X_15_6_1 + 116.619X_16_6_1 + 36.0555X_17_6_1 + 70.7107X_18_6_1 + 130.384X_19_6_1 + 31.6228X_20_6_1 + 101.9804X_21_6_1 +

122.0656X_8_7_1 + 70.7107X_9_7_1 + 50X_10_7_1 + 41.2311X_11_7_1 + 148.6607X_12_7_1 + 134.1641X_13_7_1 + 151.3275X_14_7_1 + 197.2308X_15_7_1 + 158.1139X_16_7_1 + 80.6226X_17_7_1 + 121.6553X_18_7_1 + 170.8801X_19_7_1 + 28.2843X_20_7_1 + 94.8683X_21_7_1 +

67.082X_9_8_1 + 76.1577X_10_8_1 + 84.8528X_11_8_1 + 40X_12_8_1 + 64.0312X_13_8_1 + 113.1371X_14_8_1 + 100X_15_8_1 + 94.3398X_16_8_1 + 90.5539X_17_8_1 + 130X_18_8_1 + 98.4886X_19_8_1 + 130X_20_8_1 + 41.2311X_21_8_1 + 

50X_10_9_1 + 30X_11_9_1 + 104.4031X_12_9_1 + 110.4536X_13_9_1 + 148.6607X_14_9_1 + 162.7882X_15_9_1 + 141.4214X_16_9_1 + 92.1954X_17_9_1 + 142.1267X_18_9_1 + 150.333X_19_9_1 + 90.5539X_20_9_1 + 28.2843X_21_9_1 +

31.6228X_11_10_1 + 98.  + 85.44X_13_10_1 + 110.4536X_14_10_1 + 147.6482X_15_10_1 + 111.8034X_16_10_1 + 44.7214X_17_10_1 + 94.3398X_18_10_1 + 123.6932X_19_10_1 + 53.8516X_20_10_1 + 60.8276X_21_10_1 +

116.619X_12_11_1 + 111.8034X_13_11_1 + 141.4214X_14_11_1 + 170.8801X_15_11_1 + 140.3567X_16_11_1 + 76.1577X_17_11_1 + 125.2996X_18_11_1 + 151.3275X_19_11_1 + 60.8276X_20_11_1 + 53.8516X_21_11_1 + 

41.2311X_13_12_1 + 89.4427X_14_12_1 + 60X_15_12_1 + 64.0312X_16_12_1 + 94.8683X_17_12_1 + 120.4159X_18_12_1 + 64.0312X_19_12_1 + 150X_20_12_1 + 80.6226X_21_12_1 + 

50X_14_13_1 + 64.0312X_15_13_1 + 31.6228X_16_13_1 + 64.0312X_17_13_1 + 80X_18_13_1 + 40X_19_13_1 + 128.0625X_20_13_1 + 94.8683X_21_13_1 + 

82.4621X_15_14_1 + 30X_16_14_1 + 70.7107X_17_14_1 + 50X_18_14_1 + 41.2311X_19_14_1 + 136.0147X_20_14_1 + 138.9244X_21_14_1 + 

53.8516X_16_15_1 + 127.2792X_17_15_1 + 130X_18_15_1 + 41.2311X_19_15_1 + 192.0937X_20_15_1 + 140.3567X_21_15_1 + 

80.6226X_17_16_1 + 76.1577X_18_16_1 + 14.1421X_19_16_1 + 147.6482X_20_16_1 + 126.4911X_21_16_1 + 

50X_18_17_1 + 94.3398X_19_17_1 + 67.082X_20_17_1 + 94.3398X_21_17_1 + 

89.4427X_19_18_1 + 100X_20_18_1 + 142.1267X_21_18_1 +

161.2452X_20_19_1 + 133.4166X_21_19_1 + 

110.4536X_21_20_1 + 
 
/* 
    k = 2 : Distances multiplied by the binary edge coefficients for day two 
*/
42.4264X_2_1_2 + 110.4536X_3_1_2 + 80.6226X_4_1_2 + 102.9563X_5_1_2 + 53.8516X_6_1_2 + 80.6226X_7_1_2 + 60X_8_1_2 + 67.082X_9_1_2 + 31.6228X_10_1_2 + 60X_11_1_2 + 72.111X_12_1_2 + 53.8516X_13_1_2 + 82.4621X_14_1_2 + 116.619X_15_1_2 + 80.6226X_16_1_2 + 31.6228X_17_1_2 + 78.1025X_18_1_2 + 92.1954X_19_1_2 + 78.1025X_20_1_2 + 64.0312X_21_1_2 + 

89X_3_2_2 + 80.6226X_4_2_2 + 63.2456X_5_2_2 + 53.8516X_6_2_2 + 100.4988X_7_2_2 + 94.8683X_8_2_2 + 108.1665X_9_2_2 + 63.2456X_10_2_2 + 94.8683X_11_2_2 + 90.5539X_12_2_2 + 53.8516X_13_2_2 + 50.9902X_14_2_2 + 114.0175X_15_2_2 + 64.0312X_16_2_2 + 20X_17_2_2 + 36.0555X_18_2_2 + 78.1025X_19_2_2 + 85.44X_20_2_2 + 106.3015X_21_2_2 + 

50X_4_3_2 + 63.2456X_5_3_2 + 143.1782X_6_3_2 + 186.8154X_7_3_2 + 120.8305X_8_3_2 + 171.1724X_9_3_2 + 141.4214X_10_3_2 + 170.2939X_11_3_2 + 86.0233X_12_3_2 + 60.8276X_13_3_2 + 42.4264X_14_3_2 + 50.9902X_15_3_2 + 30X_16_3_2 + 107.7033X_17_3_2 + 92.1954X_18_3_2 + 22.3607X_19_3_2 + 174.6425X_20_3_2 + 155.2417X_21_3_2 +

92.1954X_5_4_2 + 127.2792X_6_4_2 + 161.2452X_7_4_2 + 72.8011X_8_4_2 + 130.384X_9_4_2 + 111.8034X_10_4_2 + 136.0147X_11_4_2 + 36.0555X_12_4_2 + 28.2843X_13_4_2 + 60.8276X_14_4_2 + 36.0555X_15_4_2 + 31.6228X_16_4_2 + 92.1954X_17_4_2 + 101.9804X_18_4_2 + 28.2843X_19_4_2 + 156.205X_20_4_2 + 110.4536X_21_4_2 +

110X_6_5_2 + 160.3122X_7_5_2 + 142.1267X_8_5_2 + 170X_9_5_2 + 126.4911X_10_5_2 + 158.1139X_11_5_2 + 120.8305X_12_5_2 + 80.6226X_13_5_2 + 31.6228X_14_5_2 + 110.4536X_15_5_2 + 60.8276X_16_5_2 + 82.4621X_17_5_2 + 41.2311X_18_5_2 + 70X_19_5_2 + 140.3567X_20_5_2 + 164.0122X_21_5_2 + 

50.9902X_7_6_2 + 111.8034X_8_6_2 + 89.4427X_9_6_2 + 41.2311X_10_6_2 + 64.0312X_11_6_2 + 125.2996X_12_6_2 + 98.9949X_13_6_2 + 104.4031X_14_6_2 + 162.7882X_15_6_2 + 116.619X_16_6_2 + 36.0555X_17_6_2 + 70.7107X_18_6_2 + 130.384X_19_6_2 + 31.6228X_20_6_2 + 101.9804X_21_6_2 + 

122.0656X_8_7_2 + 70.7107X_9_7_2 + 50X_10_7_2 + 41.2311X_11_7_2 + 148.6607X_12_7_2 + 134.1641X_13_7_2 + 151.3275X_14_7_2 + 197.2308X_15_7_2 + 158.1139X_16_7_2 + 80.6226X_17_7_2 + 121.6553X_18_7_2 + 170.8801X_19_7_2 + 28.2843X_20_7_2 + 94.8683X_21_7_2 + 

67.082X_9_8_2 + 76.1577X_10_8_2 + 84.8528X_11_8_2 + 40X_12_8_2 + 64.0312X_13_8_2 + 113.1371X_14_8_2 + 100X_15_8_2 + 94.3398X_16_8_2 + 90.5539X_17_8_2 + 130X_18_8_2 + 98.4886X_19_8_2 + 130X_20_8_2 + 41.2311X_21_8_2 + 

50X_10_9_2 + 30X_11_9_2 + 104.4031X_12_9_2 + 110.4536X_13_9_2 + 148.6607X_14_9_2 + 162.7882X_15_9_2 + 141.4214X_16_9_2 + 92.1954X_17_9_2 + 142.1267X_18_9_2 + 150.333X_19_9_2 + 90.5539X_20_9_2 + 28.2843X_21_9_2 + 

31.6228X_11_10_2 + 98.9949X_12_10_2 + 85.44X_13_10_2 + 110.4536X_14_10_2 + 147.6482X_15_10_2 + 111.8034X_16_10_2 + 44.7214X_17_10_2 + 94.3398X_18_10_2 + 123.6932X_19_10_2 + 53.8516X_20_10_2 + 60.8276X_21_10_2 + 

116.619X_12_11_2 + 111.8034X_13_11_2 + 141.4214X_14_11_2 + 170.8801X_15_11_2 + 140.3567X_16_11_2 + 76.1577X_17_11_2 + 125.2996X_18_11_2 + 151.3275X_19_11_2 + 60.8276X_20_11_2 + 53.8516X_21_11_2 + 

41.2311X_13_12_2 + 89.4427X_14_12_2 + 60X_15_12_2 + 64.0312X_16_12_2 + 94.8683X_17_12_2 + 120.4159X_18_12_2 + 64.0312X_19_12_2 + 150X_20_12_2 + 80.6226X_21_12_2 + 

50X_14_13_2 + 64.0312X_15_13_2 + 31.6228X_16_13_2 + 64.0312X_17_13_2 + 80X_18_13_2 + 40X_19_13_2 + 128.0625X_20_13_2 + 94.8683X_21_13_2 + 

82.4621X_15_14_2 + 30X_16_14_2 + 70.7107X_17_14_2 + 50X_18_14_2 + 41.2311X_19_14_2 + 136.0147X_20_14_2 + 138.9244X_21_14_2 + 

53.8516X_16_15_2 + 127.2792X_17_15_2 + 130X_18_15_2 + 41.2311X_19_15_2 + 192.0937X_20_15_2 + 140.3567X_21_15_2 + 

80.6226X_17_16_2 + 76.1577X_18_16_2 + 14.1421X_19_16_2 + 147.6482X_20_16_2 + 126.4911X_21_16_2 + 

50X_18_17_2 + 94.3398X_19_17_2 + 67.082X_20_17_2 + 94.3398X_21_17_2 + 

89.4427X_19_18_2 + 100X_20_18_2 + 142.1267X_21_18_2 + 

161.2452X_20_19_2 + 133.4166X_21_19_2 + 

110.4536X_21_20_2;

/* Variable bounds
Constraint_1 - Tanker cannot collect more than 80,000 litres in any given day. 43t are collected daily from farms 1-10.
Compact notation:
        SUM[i=11 to 21](K_i Y_ik) < 37     for k = 1, 2
        Where:
              K_i is Farm i's periodic collection requirment.
              Y_ik is the farm fisitation inidcator for farm i on day k.
              37 represents the total tanker capacity (80) minus the mandatory daily collection (43).
*/
4Y_11_1 + 7Y_12_1 + 3Y_13_1 + 4Y_14_1 + 5Y_15_1 + 6Y_16_1 + 8Y_17_1 + 5Y_18_1 + 7Y_19_1 + 6Y_20_1 + 6Y_21_1 <= 37;
4Y_11_2 + 7Y_12_2 + 3Y_13_2 + 4Y_14_2 + 5Y_15_2 + 6Y_16_2 + 8Y_17_2 + 5Y_18_2 + 7Y_19_2 + 6Y_20_2 + 6Y_21_2 <= 37;

/* Constraint_2 - Every other day Farm Visititation Variables (farms 11-21). For daily farms it is implied that SUM(x_i_k) for k [1,2] = 2.
Compact Notation:
        Y_i1 + Y_i2 = 1       for i = 11 to 21
*/
Y_11_1 + Y_11_2 = 1;
Y_12_1 + Y_12_2 = 1;
Y_13_1 + Y_13_2 = 1;
Y_14_1 + Y_14_2 = 1;
Y_15_1 + Y_15_2 = 1;
Y_16_1 + Y_16_2 = 1;
Y_17_1 + Y_17_2 = 1;
Y_18_1 + Y_18_2 = 1;
Y_19_1 + Y_19_2 = 1;
Y_20_1 + Y_20_2 = 1;
Y_21_1 + Y_21_2 = 1;

// Suggested in the textbook - not counted in the results tab?
Y_11_1 = 1;

/*
Constraint 3a - k1 & k2 edge variable constraints for farms 1-10
SUM[j:j>i](X_ijk) + SUM[j:j<i](X_jik) for i = 1 to 10, k = 1 to 2, j = 1 to 21
*/
X_2_1_1 + X_3_1_1 + X_4_1_1 + X_5_1_1 + X_6_1_1 + X_7_1_1 + X_8_1_1 + X_9_1_1 + X_10_1_1 + X_11_1_1 + X_12_1_1 + X_13_1_1 + X_14_1_1 + X_15_1_1 + X_16_1_1 + X_17_1_1 + X_18_1_1 + X_19_1_1 + X_20_1_1 + X_21_1_1 = 2;

X_2_1_1 + X_3_2_1 + X_4_2_1 + X_5_2_1 + X_6_2_1 + X_7_2_1 + X_8_2_1 + X_9_2_1 + X_10_2_1 + X_11_2_1 + X_12_2_1 + X_13_2_1 + X_14_2_1 + X_15_2_1 + X_16_2_1 + X_17_2_1 + X_18_2_1 + X_19_2_1 + X_20_2_1 + X_21_2_1 = 2;

X_3_1_1 + X_3_2_1 + X_4_3_1 + X_5_3_1 + X_6_3_1 + X_7_3_1 + X_8_3_1 + X_9_3_1 + X_10_3_1 + X_11_3_1 + X_12_3_1 + X_13_3_1 + X_14_3_1 + X_15_3_1 + X_16_3_1 + X_17_3_1 + X_18_3_1 + X_19_3_1 + X_20_3_1 + X_21_3_1 = 2;

X_4_1_1 + X_4_2_1 + X_4_3_1 + X_5_4_1 + X_6_4_1 + X_7_4_1 + X_8_4_1 + X_9_4_1 + X_10_4_1 + X_11_4_1 + X_12_4_1 + X_13_4_1 + X_14_4_1 + X_15_4_1 + X_16_4_1 + X_17_4_1 + X_18_4_1 + X_19_4_1 + X_20_4_1 + X_21_4_1 = 2;

X_5_1_1 + X_5_2_1 + X_5_3_1 + X_5_4_1 + X_6_5_1 + X_7_5_1 + X_8_5_1 + X_9_5_1 + X_10_5_1 + X_11_5_1 + X_12_5_1 + X_13_5_1 + X_14_5_1 + X_15_5_1 + X_16_5_1 + X_17_5_1 + X_18_5_1 + X_19_5_1 + X_20_5_1 + X_21_5_1 = 2;

X_6_1_1 + X_6_2_1 + X_6_3_1 + X_6_4_1 + X_6_5_1 + X_7_6_1 + X_8_6_1 + X_9_6_1 + X_10_6_1 + X_11_6_1 + X_12_6_1 + X_13_6_1 + X_14_6_1 + X_15_6_1 + X_16_6_1 + X_17_6_1 + X_18_6_1 + X_19_6_1 + X_20_6_1 + X_21_6_1 = 2;

X_7_1_1 + X_7_2_1 + X_7_3_1 + X_7_4_1 + X_7_5_1 + X_7_6_1 + X_8_7_1 + X_9_7_1 + X_10_7_1 + X_11_7_1 + X_12_7_1 + X_13_7_1 + X_14_7_1 + X_15_7_1 + X_16_7_1 + X_17_7_1 + X_18_7_1 + X_19_7_1 + X_20_7_1 + X_21_7_1 = 2;

X_8_1_1 + X_8_2_1 + X_8_3_1 + X_8_4_1 + X_8_5_1 + X_8_6_1 + X_8_7_1 + X_9_8_1 + X_10_8_1 + X_11_8_1 + X_12_8_1 + X_13_8_1 + X_14_8_1 + X_15_8_1 + X_16_8_1 + X_17_8_1 + X_18_8_1 + X_19_8_1 + X_20_8_1 + X_21_8_1 = 2;

X_9_1_1 + X_9_2_1 + X_9_3_1 + X_9_4_1 + X_9_5_1 + X_9_6_1 + X_9_7_1 + X_9_8_1 + X_10_9_1 + X_11_9_1 + X_12_9_1 + X_13_9_1 + X_14_9_1 + X_15_9_1 + X_16_9_1 + X_17_9_1 + X_18_9_1 + X_19_9_1 + X_20_9_1 + X_21_9_1 = 2;

X_10_1_1 + X_10_2_1 + X_10_3_1 + X_10_4_1 + X_10_5_1 + X_10_6_1 + X_10_7_1 + X_10_8_1 + X_10_9_1 + X_11_10_1 + X_12_10_1 + X_13_10_1 + X_14_10_1 + X_15_10_1 + X_16_10_1 + X_17_10_1 + X_18_10_1 + X_19_10_1 + X_20_10_1 + X_21_10_1 = 2;


X_2_1_2 + X_3_1_2 + X_4_1_2 + X_5_1_2 + X_6_1_2 + X_7_1_2 + X_8_1_2 + X_9_1_2 + X_10_1_2 + X_11_1_2 + X_12_1_2 + X_13_1_2 + X_14_1_2 + X_15_1_2 + X_16_1_2 + X_17_1_2 + X_18_1_2 + X_19_1_2 + X_20_1_2 + X_21_1_2 = 2;

X_2_1_2 + X_3_2_2 + X_4_2_2 + X_5_2_2 + X_6_2_2 + X_7_2_2 + X_8_2_2 + X_9_2_2 + X_10_2_2 + X_11_2_2 + X_12_2_2 + X_13_2_2 + X_14_2_2 + X_15_2_2 + X_16_2_2 + X_17_2_2 + X_18_2_2 + X_19_2_2 + X_20_2_2 + X_21_2_2 = 2;

X_3_1_2 + X_3_2_2 + X_4_3_2 + X_5_3_2 + X_6_3_2 + X_7_3_2 + X_8_3_2 + X_9_3_2 + X_10_3_2 + X_11_3_2 + X_12_3_2 + X_13_3_2 + X_14_3_2 + X_15_3_2 + X_16_3_2 + X_17_3_2 + X_18_3_2 + X_19_3_2 + X_20_3_2 + X_21_3_2 = 2;

X_4_1_2 + X_4_2_2 + X_4_3_2 + X_5_4_2 + X_6_4_2 + X_7_4_2 + X_8_4_2 + X_9_4_2 + X_10_4_2 + X_11_4_2 + X_12_4_2 + X_13_4_2 + X_14_4_2 + X_15_4_2 + X_16_4_2 + X_17_4_2 + X_18_4_2 + X_19_4_2 + X_20_4_2 + X_21_4_2 = 2;

X_5_1_2 + X_5_2_2 + X_5_3_2 + X_5_4_2 + X_6_5_2 + X_7_5_2 + X_8_5_2 + X_9_5_2 + X_10_5_2 + X_11_5_2 + X_12_5_2 + X_13_5_2 + X_14_5_2 + X_15_5_2 + X_16_5_2 + X_17_5_2 + X_18_5_2 + X_19_5_2 + X_20_5_2 + X_21_5_2 = 2;

X_6_1_2 + X_6_2_2 + X_6_3_2 + X_6_4_2 + X_6_5_2 + X_7_6_2 + X_8_6_2 + X_9_6_2 + X_10_6_2 + X_11_6_2 + X_12_6_2 + X_13_6_2 + X_14_6_2 + X_15_6_2 + X_16_6_2 + X_17_6_2 + X_18_6_2 + X_19_6_2 + X_20_6_2 + X_21_6_2 = 2;

X_7_1_2 + X_7_2_2 + X_7_3_2 + X_7_4_2 + X_7_5_2 + X_7_6_2 + X_8_7_2 + X_9_7_2 + X_10_7_2 + X_11_7_2 + X_12_7_2 + X_13_7_2 + X_14_7_2 + X_15_7_2 + X_16_7_2 + X_17_7_2 + X_18_7_2 + X_19_7_2 + X_20_7_2 + X_21_7_2 = 2;

X_8_1_2 + X_8_2_2 + X_8_3_2 + X_8_4_2 + X_8_5_2 + X_8_6_2 + X_8_7_2 + X_9_8_2 + X_10_8_2 + X_11_8_2 + X_12_8_2 + X_13_8_2 + X_14_8_2 + X_15_8_2 + X_16_8_2 + X_17_8_2 + X_18_8_2 + X_19_8_2 + X_20_8_2 + X_21_8_2 = 2;

X_9_1_2 + X_9_2_2 + X_9_3_2 + X_9_4_2 + X_9_5_2 + X_9_6_2 + X_9_7_2 + X_9_8_2 + X_10_9_2 + X_11_9_2 + X_12_9_2 + X_13_9_2 + X_14_9_2 + X_15_9_2 + X_16_9_2 + X_17_9_2 + X_18_9_2 + X_19_9_2 + X_20_9_2 + X_21_9_2 = 2;

X_10_1_2 + X_10_2_2 + X_10_3_2 + X_10_4_2 + X_10_5_2 + X_10_6_2 + X_10_7_2 + X_10_8_2 + X_10_9_2 + X_11_10_2 + X_12_10_2 + X_13_10_2 + X_14_10_2 + X_15_10_2 + X_16_10_2 + X_17_10_2 + X_18_10_2 + X_19_10_2 + X_20_10_2 + X_21_10_2 = 2;


// Constraint 2a & 2b Edge constraints for farms 11-21
/*
   Compact Notation:
   SUM[j:j>i](X_ijk) + SUM[j:j<i](X_jik) - 2Y_ik = 0     for i = 11 to 21, k = 1 to 2
*/
X_11_1_1 + X_11_2_1 + X_11_3_1 + X_11_4_1 + X_11_5_1 + X_11_6_1 + X_11_7_1 + X_11_8_1 + X_11_9_1 + X_11_10_1 + X_12_11_1 + X_13_11_1 + X_14_11_1 + X_15_11_1 + X_16_11_1 + X_17_11_1 + X_18_11_1 + X_19_11_1 + X_20_11_1 + X_21_11_1 - 2Y_11_1 = 0;

X_12_1_1 + X_12_2_1 + X_12_3_1 + X_12_4_1 + X_12_5_1 + X_12_6_1 + X_12_7_1 + X_12_8_1 + X_12_9_1 + X_12_10_1 + X_12_11_1 + X_13_12_1 + X_14_12_1 + X_15_12_1 + X_16_12_1 + X_17_12_1 + X_18_12_1 + X_19_12_1 + X_20_12_1 + X_21_12_1 - 2Y_12_1 = 0;

X_13_1_1 + X_13_2_1 + X_13_3_1 + X_13_4_1 + X_13_5_1 + X_13_6_1 + X_13_7_1 + X_13_8_1 + X_13_9_1 + X_13_10_1 + X_13_11_1 + X_13_12_1 + X_14_13_1 + X_15_13_1 + X_16_13_1 + X_17_13_1 + X_18_13_1 + X_19_13_1 + X_20_13_1 + X_21_13_1 - 2Y_13_1 = 0;

X_14_1_1 + X_14_2_1 + X_14_3_1 + X_14_4_1 + X_14_5_1 + X_14_6_1 + X_14_7_1 + X_14_8_1 + X_14_9_1 + X_14_10_1 + X_14_11_1 + X_14_12_1 + X_14_13_1 + X_15_14_1 + X_16_14_1 + X_17_14_1 + X_18_14_1 + X_19_14_1 + X_20_14_1 + X_21_14_1 - 2Y_14_1 = 0;

X_15_1_1 + X_15_2_1 + X_15_3_1 + X_15_4_1 + X_15_5_1 + X_15_6_1 + X_15_7_1 + X_15_8_1 + X_15_9_1 + X_15_10_1 + X_15_11_1 + X_15_12_1 + X_15_13_1 + X_15_14_1 + X_16_15_1 + X_17_15_1 + X_18_15_1 + X_19_15_1 + X_20_15_1 + X_21_15_1 - 2Y_15_1 = 0;

X_16_1_1 + X_16_2_1 + X_16_3_1 + X_16_4_1 + X_16_5_1 + X_16_6_1 + X_16_7_1 + X_16_8_1 + X_16_9_1 + X_16_10_1 + X_16_11_1 + X_16_12_1 + X_16_13_1 + X_16_14_1 + X_16_15_1 + X_17_16_1 + X_18_16_1 + X_19_16_1 + X_20_16_1 + X_21_16_1 - 2Y_16_1 = 0;

X_17_1_1 + X_17_2_1 + X_17_3_1 + X_17_4_1 + X_17_5_1 + X_17_6_1 + X_17_7_1 + X_17_8_1 + X_17_9_1 + X_17_10_1 + X_17_11_1 + X_17_12_1 + X_17_13_1 + X_17_14_1 + X_17_15_1 + X_17_16_1 + X_18_17_1 + X_19_17_1 + X_20_17_1 + X_21_17_1 - 2Y_17_1 = 0;

X_18_1_1 + X_18_2_1 + X_18_3_1 + X_18_4_1 + X_18_5_1 + X_18_6_1 + X_18_7_1 + X_18_8_1 + X_18_9_1 + X_18_10_1 + X_18_11_1 + X_18_12_1 + X_18_13_1 + X_18_14_1 + X_18_15_1 + X_18_16_1 + X_18_17_1 + X_19_18_1 + X_20_18_1 + X_21_18_1 - 2Y_18_1 = 0;

X_19_1_1 + X_19_2_1 + X_19_3_1 + X_19_4_1 + X_19_5_1 + X_19_6_1 + X_19_7_1 + X_19_8_1 + X_19_9_1 + X_19_10_1 + X_19_11_1 + X_19_12_1 + X_19_13_1 + X_19_14_1 + X_19_15_1 + X_19_16_1 + X_19_17_1 + X_19_18_1 + X_20_19_1 + X_21_19_1 - 2Y_19_1 = 0;

X_20_1_1 + X_20_2_1 + X_20_3_1 + X_20_4_1 + X_20_5_1 + X_20_6_1 + X_20_7_1 + X_20_8_1 + X_20_9_1 + X_20_10_1 + X_20_11_1 + X_20_12_1 + X_20_13_1 + X_20_14_1 + X_20_15_1 + X_20_16_1 + X_20_17_1 + X_20_18_1 + X_20_19_1 + X_21_20_1 - 2Y_20_1 = 0;

X_21_1_1 + X_21_2_1 + X_21_3_1 + X_21_4_1 + X_21_5_1 + X_21_6_1 + X_21_7_1 + X_21_8_1 + X_21_9_1 + X_21_10_1 + X_21_11_1 + X_21_12_1 + X_21_13_1 + X_21_14_1 + X_21_15_1 + X_21_16_1 + X_21_17_1 + X_21_18_1 + X_21_19_1 + X_21_20_1 - 2Y_21_1 = 0;


X_11_1_2 + X_11_2_2 + X_11_3_2 + X_11_4_2 + X_11_5_2 + X_11_6_2 + X_11_7_2 + X_11_8_2 + X_11_9_2 + X_11_10_2 + X_12_11_2 + X_13_11_2 + X_14_11_2 + X_15_11_2 + X_16_11_2 + X_17_11_2 + X_18_11_2 + X_19_11_2 + X_20_11_2 + X_21_11_2 - 2Y_11_2 = 0;

X_12_1_2 + X_12_2_2 + X_12_3_2 + X_12_4_2 + X_12_5_2 + X_12_6_2 + X_12_7_2 + X_12_8_2 + X_12_9_2 + X_12_10_2 + X_12_11_2 + X_13_12_2 + X_14_12_2 + X_15_12_2 + X_16_12_2 + X_17_12_2 + X_18_12_2 + X_19_12_2 + X_20_12_2 + X_21_12_2 - 2Y_12_2 = 0;

X_13_1_2 + X_13_2_2 + X_13_3_2 + X_13_4_2 + X_13_5_2 + X_13_6_2 + X_13_7_2 + X_13_8_2 + X_13_9_2 + X_13_10_2 + X_13_11_2 + X_13_12_2 + X_14_13_2 + X_15_13_2 + X_16_13_2 + X_17_13_2 + X_18_13_2 + X_19_13_2 + X_20_13_2 + X_21_13_2 - 2Y_13_2 = 0;

X_14_1_2 + X_14_2_2 + X_14_3_2 + X_14_4_2 + X_14_5_2 + X_14_6_2 + X_14_7_2 + X_14_8_2 + X_14_9_2 + X_14_10_2 + X_14_11_2 + X_14_12_2 + X_14_13_2 + X_15_14_2 + X_16_14_2 + X_17_14_2 + X_18_14_2 + X_19_14_2 + X_20_14_2 + X_21_14_2 - 2Y_14_2 = 0;

X_15_1_2 + X_15_2_2 + X_15_3_2 + X_15_4_2 + X_15_5_2 + X_15_6_2 + X_15_7_2 + X_15_8_2 + X_15_9_2 + X_15_10_2 + X_15_11_2 + X_15_12_2 + X_15_13_2 + X_15_14_2 + X_16_15_2 + X_17_15_2 + X_18_15_2 + X_19_15_2 + X_20_15_2 + X_21_15_2 - 2Y_15_2 = 0;

X_16_1_2 + X_16_2_2 + X_16_3_2 + X_16_4_2 + X_16_5_2 + X_16_6_2 + X_16_7_2 + X_16_8_2 + X_16_9_2 + X_16_10_2 + X_16_11_2 + X_16_12_2 + X_16_13_2 + X_16_14_2 + X_16_15_2 + X_17_16_2 + X_18_16_2 + X_19_16_2 + X_20_16_2 + X_21_16_2 - 2Y_16_2 = 0;

X_17_1_2 + X_17_2_2 + X_17_3_2 + X_17_4_2 + X_17_5_2 + X_17_6_2 + X_17_7_2 + X_17_8_2 + X_17_9_2 + X_17_10_2 + X_17_11_2 + X_17_12_2 + X_17_13_2 + X_17_14_2 + X_17_15_2 + X_17_16_2 + X_18_17_2 + X_19_17_2 + X_20_17_2 + X_21_17_2 - 2Y_17_2 = 0;

X_18_1_2 + X_18_2_2 + X_18_3_2 + X_18_4_2 + X_18_5_2 + X_18_6_2 + X_18_7_2 + X_18_8_2 + X_18_9_2 + X_18_10_2 + X_18_11_2 + X_18_12_2 + X_18_13_2 + X_18_14_2 + X_18_15_2 + X_18_16_2 + X_18_17_2 + X_19_18_2 + X_20_18_2 + X_21_18_2 - 2Y_18_2 = 0;

X_19_1_2 + X_19_2_2 + X_19_3_2 + X_19_4_2 + X_19_5_2 + X_19_6_2 + X_19_7_2 + X_19_8_2 + X_19_9_2 + X_19_10_2 + X_19_11_2 + X_19_12_2 + X_19_13_2 + X_19_14_2 + X_19_15_2 + X_19_16_2 + X_19_17_2 + X_19_18_2 + X_20_19_2 + X_21_19_2 - 2Y_19_2 = 0;

X_20_1_2 + X_20_2_2 + X_20_3_2 + X_20_4_2 + X_20_5_2 + X_20_6_2 + X_20_7_2 + X_20_8_2 + X_20_9_2 + X_20_10_2 + X_20_11_2 + X_20_12_2 + X_20_13_2 + X_20_14_2 + X_20_15_2 + X_20_16_2 + X_20_17_2 + X_20_18_2 + X_20_19_2 + X_21_20_2 - 2Y_20_2 = 0;

X_21_1_2 + X_21_2_2 + X_21_3_2 + X_21_4_2 + X_21_5_2 + X_21_6_2 + X_21_7_2 + X_21_8_2 + X_21_9_2 + X_21_10_2 + X_21_11_2 + X_21_12_2 + X_21_13_2 + X_21_14_2 + X_21_15_2 + X_21_16_2 + X_21_17_2 + X_21_18_2 + X_21_19_2 + X_21_20_2 - 2Y_21_2 = 0;

// Chapter 10 Additional Constraints for increased efficiency
X_11_1_1 - Y_11_1 <= 0;
X_11_2_1 - Y_11_1 <= 0;
X_11_3_1 - Y_11_1 <= 0;
X_11_4_1 - Y_11_1 <= 0;
X_11_5_1 - Y_11_1 <= 0;
X_11_6_1 - Y_11_1 <= 0;
X_11_7_1 - Y_11_1 <= 0;
X_11_8_1 - Y_11_1 <= 0;
X_11_9_1 - Y_11_1 <= 0;
X_11_10_1 - Y_11_1 <= 0;
X_12_11_1 - Y_11_1 <= 0;
X_13_11_1 - Y_11_1 <= 0;
X_14_11_1 - Y_11_1 <= 0;
X_15_11_1 - Y_11_1 <= 0;
X_16_11_1 - Y_11_1 <= 0;
X_17_11_1 - Y_11_1 <= 0;
X_18_11_1 - Y_11_1 <= 0;
X_19_11_1 - Y_11_1 <= 0;
X_20_11_1 - Y_11_1 <= 0;
X_21_11_1 - Y_11_1 <= 0;

X_12_1_1 - Y_12_1 <= 0;
X_12_2_1 - Y_12_1 <= 0;
X_12_3_1 - Y_12_1 <= 0;
X_12_4_1 - Y_12_1 <= 0;
X_12_5_1 - Y_12_1 <= 0;
X_12_6_1 - Y_12_1 <= 0;
X_12_7_1 - Y_12_1 <= 0;
X_12_8_1 - Y_12_1 <= 0;
X_12_9_1 - Y_12_1 <= 0;
X_12_10_1 - Y_12_1 <= 0;
X_12_11_1 - Y_12_1 <= 0;
X_13_12_1 - Y_12_1 <= 0;
X_14_12_1 - Y_12_1 <= 0;
X_15_12_1 - Y_12_1 <= 0;
X_16_12_1 - Y_12_1 <= 0;
X_17_12_1 - Y_12_1 <= 0;
X_18_12_1 - Y_12_1 <= 0;
X_19_12_1 - Y_12_1 <= 0;
X_20_12_1 - Y_12_1 <= 0;
X_21_12_1 - Y_12_1 <= 0;

X_13_1_1 - Y_13_1 <= 0;
X_13_2_1 - Y_13_1 <= 0;
X_13_3_1 - Y_13_1 <= 0;
X_13_4_1 - Y_13_1 <= 0;
X_13_5_1 - Y_13_1 <= 0;
X_13_6_1 - Y_13_1 <= 0;
X_13_7_1 - Y_13_1 <= 0;
X_13_8_1 - Y_13_1 <= 0;
X_13_9_1 - Y_13_1 <= 0;
X_13_10_1 - Y_13_1 <= 0;
X_13_11_1 - Y_13_1 <= 0;
X_13_12_1 - Y_13_1 <= 0;
X_14_13_1 - Y_13_1 <= 0;
X_15_13_1 - Y_13_1 <= 0;
X_16_13_1 - Y_13_1 <= 0;
X_17_13_1 - Y_13_1 <= 0;
X_18_13_1 - Y_13_1 <= 0;
X_19_13_1 - Y_13_1 <= 0;
X_20_13_1 - Y_13_1 <= 0;
X_21_13_1 - Y_13_1 <= 0;

X_14_1_1 - Y_14_1 <= 0;
X_14_2_1 - Y_14_1 <= 0;
X_14_3_1 - Y_14_1 <= 0;
X_14_4_1 - Y_14_1 <= 0;
X_14_5_1 - Y_14_1 <= 0;
X_14_6_1 - Y_14_1 <= 0;
X_14_7_1 - Y_14_1 <= 0;
X_14_8_1 - Y_14_1 <= 0;
X_14_9_1 - Y_14_1 <= 0;
X_14_10_1 - Y_14_1 <= 0;
X_14_11_1 - Y_14_1 <= 0;
X_14_12_1 - Y_14_1 <= 0;
X_14_13_1 - Y_14_1 <= 0;
X_15_14_1 - Y_14_1 <= 0;
X_16_14_1 - Y_14_1 <= 0;
X_17_14_1 - Y_14_1 <= 0;
X_18_14_1 - Y_14_1 <= 0;
X_19_14_1 - Y_14_1 <= 0;
X_20_14_1 - Y_14_1 <= 0;
X_21_14_1 - Y_14_1 <= 0;

X_15_1_1 - Y_15_1 <= 0;
X_15_2_1 - Y_15_1 <= 0;
X_15_3_1 - Y_15_1 <= 0;
X_15_4_1 - Y_15_1 <= 0;
X_15_5_1 - Y_15_1 <= 0;
X_15_6_1 - Y_15_1 <= 0;
X_15_7_1 - Y_15_1 <= 0;
X_15_8_1 - Y_15_1 <= 0;
X_15_9_1 - Y_15_1 <= 0;
X_15_10_1 - Y_15_1 <= 0;
X_15_11_1 - Y_15_1 <= 0;
X_15_12_1 - Y_15_1 <= 0;
X_15_13_1 - Y_15_1 <= 0;
X_15_14_1 - Y_15_1 <= 0;
X_16_15_1 - Y_15_1 <= 0;
X_17_15_1 - Y_15_1 <= 0;
X_18_15_1 - Y_15_1 <= 0;
X_19_15_1 - Y_15_1 <= 0;
X_20_15_1 - Y_15_1 <= 0;
X_21_15_1 - Y_15_1 <= 0;

X_16_1_1 - Y_16_1 <= 0;
X_16_2_1 - Y_16_1 <= 0;
X_16_3_1 - Y_16_1 <= 0;
X_16_4_1 - Y_16_1 <= 0;
X_16_5_1 - Y_16_1 <= 0;
X_16_6_1 - Y_16_1 <= 0;
X_16_7_1 - Y_16_1 <= 0;
X_16_8_1 - Y_16_1 <= 0;
X_16_9_1 - Y_16_1 <= 0;
X_16_10_1 - Y_16_1 <= 0;
X_16_11_1 - Y_16_1 <= 0;
X_16_12_1 - Y_16_1 <= 0;
X_16_13_1 - Y_16_1 <= 0;
X_16_14_1 - Y_16_1 <= 0;
X_16_15_1 - Y_16_1 <= 0;
X_17_16_1 - Y_16_1 <= 0;
X_18_16_1 - Y_16_1 <= 0;
X_19_16_1 - Y_16_1 <= 0;
X_20_16_1 - Y_16_1 <= 0;
X_21_16_1 - Y_16_1 <= 0;

X_17_1_1 - Y_17_1 <= 0;
X_17_2_1 - Y_17_1 <= 0;
X_17_3_1 - Y_17_1 <= 0;
X_17_4_1 - Y_17_1 <= 0;
X_17_5_1 - Y_17_1 <= 0;
X_17_6_1 - Y_17_1 <= 0;
X_17_7_1 - Y_17_1 <= 0;
X_17_8_1 - Y_17_1 <= 0;
X_17_9_1 - Y_17_1 <= 0;
X_17_10_1 - Y_17_1 <= 0;
X_17_11_1 - Y_17_1 <= 0;
X_17_12_1 - Y_17_1 <= 0;
X_17_13_1 - Y_17_1 <= 0;
X_17_14_1 - Y_17_1 <= 0;
X_17_15_1 - Y_17_1 <= 0;
X_17_16_1 - Y_17_1 <= 0;
X_18_17_1 - Y_17_1 <= 0;
X_19_17_1 - Y_17_1 <= 0;
X_20_17_1 - Y_17_1 <= 0;
X_21_17_1 - Y_17_1 <= 0;

X_18_1_1 - Y_18_1 <= 0;
X_18_2_1 - Y_18_1 <= 0;
X_18_3_1 - Y_18_1 <= 0;
X_18_4_1 - Y_18_1 <= 0;
X_18_5_1 - Y_18_1 <= 0;
X_18_6_1 - Y_18_1 <= 0;
X_18_7_1 - Y_18_1 <= 0;
X_18_8_1 - Y_18_1 <= 0;
X_18_9_1 - Y_18_1 <= 0;
X_18_10_1 - Y_18_1 <= 0;
X_18_11_1 - Y_18_1 <= 0;
X_18_12_1 - Y_18_1 <= 0;
X_18_13_1 - Y_18_1 <= 0;
X_18_14_1 - Y_18_1 <= 0;
X_18_15_1 - Y_18_1 <= 0;
X_18_16_1 - Y_18_1 <= 0;
X_18_17_1 - Y_18_1 <= 0;
X_19_18_1 - Y_18_1 <= 0;
X_20_18_1 - Y_18_1 <= 0;
X_21_18_1 - Y_18_1 <= 0;

X_19_1_1 - Y_19_1 <= 0;
X_19_2_1 - Y_19_1 <= 0;
X_19_3_1 - Y_19_1 <= 0;
X_19_4_1 - Y_19_1 <= 0;
X_19_5_1 - Y_19_1 <= 0;
X_19_6_1 - Y_19_1 <= 0;
X_19_7_1 - Y_19_1 <= 0;
X_19_8_1 - Y_19_1 <= 0;
X_19_9_1 - Y_19_1 <= 0;
X_19_10_1 - Y_19_1 <= 0;
X_19_11_1 - Y_19_1 <= 0;
X_19_12_1 - Y_19_1 <= 0;
X_19_13_1 - Y_19_1 <= 0;
X_19_14_1 - Y_19_1 <= 0;
X_19_15_1 - Y_19_1 <= 0;
X_19_16_1 - Y_19_1 <= 0;
X_19_17_1 - Y_19_1 <= 0;
X_19_18_1 - Y_19_1 <= 0;
X_20_19_1 - Y_19_1 <= 0;
X_21_19_1 - Y_19_1 <= 0;

X_20_1_1 - Y_20_1 <= 0;
X_20_2_1 - Y_20_1 <= 0;
X_20_3_1 - Y_20_1 <= 0;
X_20_4_1 - Y_20_1 <= 0;
X_20_5_1 - Y_20_1 <= 0;
X_20_6_1 - Y_20_1 <= 0;
X_20_7_1 - Y_20_1 <= 0;
X_20_8_1 - Y_20_1 <= 0;
X_20_9_1 - Y_20_1 <= 0;
X_20_10_1 - Y_20_1 <= 0;
X_20_11_1 - Y_20_1 <= 0;
X_20_12_1 - Y_20_1 <= 0;
X_20_13_1 - Y_20_1 <= 0;
X_20_14_1 - Y_20_1 <= 0;
X_20_15_1 - Y_20_1 <= 0;
X_20_16_1 - Y_20_1 <= 0;
X_20_17_1 - Y_20_1 <= 0;
X_20_18_1 - Y_20_1 <= 0;
X_20_19_1 - Y_20_1 <= 0;
X_21_20_1 - Y_20_1 <= 0;

X_21_1_1 - Y_21_1 <= 0;
X_21_2_1 - Y_21_1 <= 0;
X_21_3_1 - Y_21_1 <= 0;
X_21_4_1 - Y_21_1 <= 0;
X_21_5_1 - Y_21_1 <= 0;
X_21_6_1 - Y_21_1 <= 0;
X_21_7_1 - Y_21_1 <= 0;
X_21_8_1 - Y_21_1 <= 0;
X_21_9_1 - Y_21_1 <= 0;
X_21_10_1 - Y_21_1 <= 0;
X_21_11_1 - Y_21_1 <= 0;
X_21_12_1 - Y_21_1 <= 0;
X_21_13_1 - Y_21_1 <= 0;
X_21_14_1 - Y_21_1 <= 0;
X_21_15_1 - Y_21_1 <= 0;
X_21_16_1 - Y_21_1 <= 0;
X_21_17_1 - Y_21_1 <= 0;
X_21_18_1 - Y_21_1 <= 0;
X_21_19_1 - Y_21_1 <= 0;
X_21_20_1 - Y_21_1 <= 0;


X_11_1_2 - Y_11_2 <= 0;
X_11_2_2 - Y_11_2 <= 0;
X_11_3_2 - Y_11_2 <= 0;
X_11_4_2 - Y_11_2 <= 0;
X_11_5_2 - Y_11_2 <= 0;
X_11_6_2 - Y_11_2 <= 0;
X_11_7_2 - Y_11_2 <= 0;
X_11_8_2 - Y_11_2 <= 0;
X_11_9_2 - Y_11_2 <= 0;
X_11_10_2 - Y_11_2 <= 0;
X_12_11_2 - Y_11_2 <= 0;
X_13_11_2 - Y_11_2 <= 0;
X_14_11_2 - Y_11_2 <= 0;
X_15_11_2 - Y_11_2 <= 0;
X_16_11_2 - Y_11_2 <= 0;
X_17_11_2 - Y_11_2 <= 0;
X_18_11_2 - Y_11_2 <= 0;
X_19_11_2 - Y_11_2 <= 0;
X_20_11_2 - Y_11_2 <= 0;
X_21_11_2 - Y_11_2 <= 0;

X_12_1_2 - Y_12_2 <= 0;
X_12_2_2 - Y_12_2 <= 0;
X_12_3_2 - Y_12_2 <= 0;
X_12_4_2 - Y_12_2 <= 0;
X_12_5_2 - Y_12_2 <= 0;
X_12_6_2 - Y_12_2 <= 0;
X_12_7_2 - Y_12_2 <= 0;
X_12_8_2 - Y_12_2 <= 0;
X_12_9_2 - Y_12_2 <= 0;
X_12_10_2 - Y_12_2 <= 0;
X_12_11_2 - Y_12_2 <= 0;
X_13_12_2 - Y_12_2 <= 0;
X_14_12_2 - Y_12_2 <= 0;
X_15_12_2 - Y_12_2 <= 0;
X_16_12_2 - Y_12_2 <= 0;
X_17_12_2 - Y_12_2 <= 0;
X_18_12_2 - Y_12_2 <= 0;
X_19_12_2 - Y_12_2 <= 0;
X_20_12_2 - Y_12_2 <= 0;
X_21_12_2 - Y_12_2 <= 0;

X_13_1_2 - Y_13_2 <= 0;
X_13_2_2 - Y_13_2 <= 0;
X_13_3_2 - Y_13_2 <= 0;
X_13_4_2 - Y_13_2 <= 0;
X_13_5_2 - Y_13_2 <= 0;
X_13_6_2 - Y_13_2 <= 0;
X_13_7_2 - Y_13_2 <= 0;
X_13_8_2 - Y_13_2 <= 0;
X_13_9_2 - Y_13_2 <= 0;
X_13_10_2 - Y_13_2 <= 0;
X_13_11_2 - Y_13_2 <= 0;
X_13_12_2 - Y_13_2 <= 0;
X_14_13_2 - Y_13_2 <= 0;
X_15_13_2 - Y_13_2 <= 0;
X_16_13_2 - Y_13_2 <= 0;
X_17_13_2 - Y_13_2 <= 0;
X_18_13_2 - Y_13_2 <= 0;
X_19_13_2 - Y_13_2 <= 0;
X_20_13_2 - Y_13_2 <= 0;
X_21_13_2 - Y_13_2 <= 0;

X_14_1_2 - Y_14_2 <= 0;
X_14_2_2 - Y_14_2 <= 0;
X_14_3_2 - Y_14_2 <= 0;
X_14_4_2 - Y_14_2 <= 0;
X_14_5_2 - Y_14_2 <= 0;
X_14_6_2 - Y_14_2 <= 0;
X_14_7_2 - Y_14_2 <= 0;
X_14_8_2 - Y_14_2 <= 0;
X_14_9_2 - Y_14_2 <= 0;
X_14_10_2 - Y_14_2 <= 0;
X_14_11_2 - Y_14_2 <= 0;
X_14_12_2 - Y_14_2 <= 0;
X_14_13_2 - Y_14_2 <= 0;
X_15_14_2 - Y_14_2 <= 0;
X_16_14_2 - Y_14_2 <= 0;
X_17_14_2 - Y_14_2 <= 0;
X_18_14_2 - Y_14_2 <= 0;
X_19_14_2 - Y_14_2 <= 0;
X_20_14_2 - Y_14_2 <= 0;
X_21_14_2 - Y_14_2 <= 0;

X_15_1_2 - Y_15_2 <= 0;
X_15_2_2 - Y_15_2 <= 0;
X_15_3_2 - Y_15_2 <= 0;
X_15_4_2 - Y_15_2 <= 0;
X_15_5_2 - Y_15_2 <= 0;
X_15_6_2 - Y_15_2 <= 0;
X_15_7_2 - Y_15_2 <= 0;
X_15_8_2 - Y_15_2 <= 0;
X_15_9_2 - Y_15_2 <= 0;
X_15_10_2 - Y_15_2 <= 0;
X_15_11_2 - Y_15_2 <= 0;
X_15_12_2 - Y_15_2 <= 0;
X_15_13_2 - Y_15_2 <= 0;
X_15_14_2 - Y_15_2 <= 0;
X_16_15_2 - Y_15_2 <= 0;
X_17_15_2 - Y_15_2 <= 0;
X_18_15_2 - Y_15_2 <= 0;
X_19_15_2 - Y_15_2 <= 0;
X_20_15_2 - Y_15_2 <= 0;
X_21_15_2 - Y_15_2 <= 0;

X_16_1_2 - Y_16_2 <= 0;
X_16_2_2 - Y_16_2 <= 0;
X_16_3_2 - Y_16_2 <= 0;
X_16_4_2 - Y_16_2 <= 0;
X_16_5_2 - Y_16_2 <= 0;
X_16_6_2 - Y_16_2 <= 0;
X_16_7_2 - Y_16_2 <= 0;
X_16_8_2 - Y_16_2 <= 0;
X_16_9_2 - Y_16_2 <= 0;
X_16_10_2 - Y_16_2 <= 0;
X_16_11_2 - Y_16_2 <= 0;
X_16_12_2 - Y_16_2 <= 0;
X_16_13_2 - Y_16_2 <= 0;
X_16_14_2 - Y_16_2 <= 0;
X_16_15_2 - Y_16_2 <= 0;
X_17_16_2 - Y_16_2 <= 0;
X_18_16_2 - Y_16_2 <= 0;
X_19_16_2 - Y_16_2 <= 0;
X_20_16_2 - Y_16_2 <= 0;
X_21_16_2 - Y_16_2 <= 0;

X_17_1_2 - Y_17_2 <= 0;
X_17_2_2 - Y_17_2 <= 0;
X_17_3_2 - Y_17_2 <= 0;
X_17_4_2 - Y_17_2 <= 0;
X_17_5_2 - Y_17_2 <= 0;
X_17_6_2 - Y_17_2 <= 0;
X_17_7_2 - Y_17_2 <= 0;
X_17_8_2 - Y_17_2 <= 0;
X_17_9_2 - Y_17_2 <= 0;
X_17_10_2 - Y_17_2 <= 0;
X_17_11_2 - Y_17_2 <= 0;
X_17_12_2 - Y_17_2 <= 0;
X_17_13_2 - Y_17_2 <= 0;
X_17_14_2 - Y_17_2 <= 0;
X_17_15_2 - Y_17_2 <= 0;
X_17_16_2 - Y_17_2 <= 0;
X_18_17_2 - Y_17_2 <= 0;
X_19_17_2 - Y_17_2 <= 0;
X_20_17_2 - Y_17_2 <= 0;
X_21_17_2 - Y_17_2 <= 0;

X_18_1_2 - Y_18_2 <= 0;
X_18_2_2 - Y_18_2 <= 0;
X_18_3_2 - Y_18_2 <= 0;
X_18_4_2 - Y_18_2 <= 0;
X_18_5_2 - Y_18_2 <= 0;
X_18_6_2 - Y_18_2 <= 0;
X_18_7_2 - Y_18_2 <= 0;
X_18_8_2 - Y_18_2 <= 0;
X_18_9_2 - Y_18_2 <= 0;
X_18_10_2 - Y_18_2 <= 0;
X_18_11_2 - Y_18_2 <= 0;
X_18_12_2 - Y_18_2 <= 0;
X_18_13_2 - Y_18_2 <= 0;
X_18_14_2 - Y_18_2 <= 0;
X_18_15_2 - Y_18_2 <= 0;
X_18_16_2 - Y_18_2 <= 0;
X_18_17_2 - Y_18_2 <= 0;
X_19_18_2 - Y_18_2 <= 0;
X_20_18_2 - Y_18_2 <= 0;
X_21_18_2 - Y_18_2 <= 0;

X_19_1_2 - Y_19_2 <= 0;
X_19_2_2 - Y_19_2 <= 0;
X_19_3_2 - Y_19_2 <= 0;
X_19_4_2 - Y_19_2 <= 0;
X_19_5_2 - Y_19_2 <= 0;
X_19_6_2 - Y_19_2 <= 0;
X_19_7_2 - Y_19_2 <= 0;
X_19_8_2 - Y_19_2 <= 0;
X_19_9_2 - Y_19_2 <= 0;
X_19_10_2 - Y_19_2 <= 0;
X_19_11_2 - Y_19_2 <= 0;
X_19_12_2 - Y_19_2 <= 0;
X_19_13_2 - Y_19_2 <= 0;
X_19_14_2 - Y_19_2 <= 0;
X_19_15_2 - Y_19_2 <= 0;
X_19_16_2 - Y_19_2 <= 0;
X_19_17_2 - Y_19_2 <= 0;
X_19_18_2 - Y_19_2 <= 0;
X_20_19_2 - Y_19_2 <= 0;
X_21_19_2 - Y_19_2 <= 0;

X_20_1_2 - Y_20_2 <= 0;
X_20_2_2 - Y_20_2 <= 0;
X_20_3_2 - Y_20_2 <= 0;
X_20_4_2 - Y_20_2 <= 0;
X_20_5_2 - Y_20_2 <= 0;
X_20_6_2 - Y_20_2 <= 0;
X_20_7_2 - Y_20_2 <= 0;
X_20_8_2 - Y_20_2 <= 0;
X_20_9_2 - Y_20_2 <= 0;
X_20_10_2 - Y_20_2 <= 0;
X_20_11_2 - Y_20_2 <= 0;
X_20_12_2 - Y_20_2 <= 0;
X_20_13_2 - Y_20_2 <= 0;
X_20_14_2 - Y_20_2 <= 0;
X_20_15_2 - Y_20_2 <= 0;
X_20_16_2 - Y_20_2 <= 0;
X_20_17_2 - Y_20_2 <= 0;
X_20_18_2 - Y_20_2 <= 0;
X_20_19_2 - Y_20_2 <= 0;
X_21_20_2 - Y_20_2 <= 0;

X_21_1_2 - Y_21_2 <= 0;
X_21_2_2 - Y_21_2 <= 0;
X_21_3_2 - Y_21_2 <= 0;
X_21_4_2 - Y_21_2 <= 0;
X_21_5_2 - Y_21_2 <= 0;
X_21_6_2 - Y_21_2 <= 0;
X_21_7_2 - Y_21_2 <= 0;
X_21_8_2 - Y_21_2 <= 0;
X_21_9_2 - Y_21_2 <= 0;
X_21_10_2 - Y_21_2 <= 0;
X_21_11_2 - Y_21_2 <= 0;
X_21_12_2 - Y_21_2 <= 0;
X_21_13_2 - Y_21_2 <= 0;
X_21_14_2 - Y_21_2 <= 0;
X_21_15_2 - Y_21_2 <= 0;
X_21_16_2 - Y_21_2 <= 0;
X_21_17_2 - Y_21_2 <= 0;
X_21_18_2 - Y_21_2 <= 0;
X_21_19_2 - Y_21_2 <= 0;
X_21_20_2 - Y_21_2 <= 0;


// Sub-Tour constraints - Need to duplicate per k
X_8_1_1 + X_21_8_1 + X_21_9_1 + X_10_9_1 + X_10_1_1 <= 4;
X_8_1_2 + X_21_8_2 + X_21_9_2 + X_10_9_2 + X_10_1_2 <= 4;

X_15_3_1 + X_15_4_1 + X_19_4_1 + X_19_3_1 <= 3;
X_15_3_2 + X_15_4_2 + X_19_4_2 + X_19_3_2 <= 3;

X_13_4_1 + X_16_13_1 + X_16_3_1 + X_19_3_1 + X_19_4_1 <= 4;
X_13_4_2 + X_16_13_2 + X_16_3_2 + X_19_3_2 + X_19_4_2 <= 4;

X_5_2_1 + X_18_5_1 + X_18_2_1 <= 2;
X_5_2_2 + X_18_5_2 + X_18_2_2 <= 2;

X_7_6_1 + X_20_7_1 + X_20_6_1 <= 2;
X_7_6_2 + X_20_7_2 + X_20_6_2 <= 2;

X_9_8_1 + X_21_9_1 + X_21_8_1 <= 2;
X_9_8_2 + X_21_9_2 + X_21_8_2 <= 2;


// binary signifier for all variables.
bin X_2_1_1, X_2_1_2, X_3_1_1, X_3_1_2, X_3_2_1, X_3_2_2, X_4_1_1, X_4_1_2, X_4_2_1, X_4_2_2, X_4_3_1, X_4_3_2, X_5_1_1, X_5_1_2, X_5_2_1, X_5_2_2, X_5_3_1, X_5_3_2, X_5_4_1, X_5_4_2, X_6_1_1, X_6_1_2, X_6_2_1, X_6_2_2, X_6_3_1, X_6_3_2, X_6_4_1, X_6_4_2, X_6_5_1, X_6_5_2, X_7_1_1, X_7_1_2, X_7_2_1, X_7_2_2, X_7_3_1, X_7_3_2, X_7_4_1, X_7_4_2, X_7_5_1, X_7_5_2, X_7_6_1, X_7_6_2, X_8_1_1, X_8_1_2, X_8_2_1, X_8_2_2, X_8_3_1, X_8_3_2, X_8_4_1, X_8_4_2, X_8_5_1, X_8_5_2, X_8_6_1, X_8_6_2, X_8_7_1, X_8_7_2, X_9_1_1, X_9_1_2, X_9_2_1, X_9_2_2, X_9_3_1, X_9_3_2, X_9_4_1, X_9_4_2, X_9_5_1, X_9_5_2, X_9_6_1, X_9_6_2, X_9_7_1, X_9_7_2, X_9_8_1, X_9_8_2, X_10_1_1, X_10_1_2, X_10_2_1, X_10_2_2, X_10_3_1, X_10_3_2, X_10_4_1, X_10_4_2, X_10_5_1, X_10_5_2, X_10_6_1, X_10_6_2, X_10_7_1, X_10_7_2, X_10_8_1, X_10_8_2, X_10_9_1, X_10_9_2, X_11_1_1, X_11_1_2, X_11_2_1, X_11_2_2, X_11_3_1, X_11_3_2, X_11_4_1, X_11_4_2, X_11_5_1, X_11_5_2, X_11_6_1, X_11_6_2, X_11_7_1, X_11_7_2, X_11_8_1, X_11_8_2, X_11_9_1, X_11_9_2, X_11_10_1, X_11_10_2, X_12_1_1, X_12_1_2, X_12_2_1, X_12_2_2, X_12_3_1, X_12_3_2, X_12_4_1, X_12_4_2, X_12_5_1, X_12_5_2, X_12_6_1, X_12_6_2, X_12_7_1, X_12_7_2, X_12_8_1, X_12_8_2, X_12_9_1, X_12_9_2, X_12_10_1, X_12_10_2, X_12_11_1, X_12_11_2, X_13_1_1, X_13_1_2, X_13_2_1, X_13_2_2, X_13_3_1, X_13_3_2, X_13_4_1, X_13_4_2, X_13_5_1, X_13_5_2, X_13_6_1, X_13_6_2, X_13_7_1, X_13_7_2, X_13_8_1, X_13_8_2, X_13_9_1, X_13_9_2, X_13_10_1, X_13_10_2, X_13_11_1, X_13_11_2, X_13_12_1, X_13_12_2, X_14_1_1, X_14_1_2, X_14_2_1, X_14_2_2, X_14_3_1, X_14_3_2, X_14_4_1, X_14_4_2, X_14_5_1, X_14_5_2, X_14_6_1, X_14_6_2, X_14_7_1, X_14_7_2, X_14_8_1, X_14_8_2, X_14_9_1, X_14_9_2, X_14_10_1, X_14_10_2, X_14_11_1, X_14_11_2, X_14_12_1, X_14_12_2, X_14_13_1, X_14_13_2, X_15_1_1, X_15_1_2, X_15_2_1, X_15_2_2, X_15_3_1, X_15_3_2, X_15_4_1, X_15_4_2, X_15_5_1, X_15_5_2, X_15_6_1, X_15_6_2, X_15_7_1, X_15_7_2, X_15_8_1, X_15_8_2, X_15_9_1, X_15_9_2, X_15_10_1, X_15_10_2, X_15_11_1, X_15_11_2, X_15_12_1, X_15_12_2, X_15_13_1, X_15_13_2, X_15_14_1, X_15_14_2, X_16_1_1, X_16_1_2, X_16_2_1, X_16_2_2, X_16_3_1, X_16_3_2, X_16_4_1, X_16_4_2, X_16_5_1, X_16_5_2, X_16_6_1, X_16_6_2, X_16_7_1, X_16_7_2, X_16_8_1, X_16_8_2, X_16_9_1, X_16_9_2, X_16_10_1, X_16_10_2, X_16_11_1, X_16_11_2, X_16_12_1, X_16_12_2, X_16_13_1, X_16_13_2, X_16_14_1, X_16_14_2, X_16_15_1, X_16_15_2, X_17_1_1, X_17_1_2, X_17_2_1, X_17_2_2, X_17_3_1, X_17_3_2, X_17_4_1, X_17_4_2, X_17_5_1, X_17_5_2, X_17_6_1, X_17_6_2, X_17_7_1, X_17_7_2, X_17_8_1, X_17_8_2, X_17_9_1, X_17_9_2, X_17_10_1, X_17_10_2, X_17_11_1, X_17_11_2, X_17_12_1, X_17_12_2, X_17_13_1, X_17_13_2, X_17_14_1, X_17_14_2, X_17_15_1, X_17_15_2, X_17_16_1, X_17_16_2, X_18_1_1, X_18_1_2, X_18_2_1, X_18_2_2, X_18_3_1, X_18_3_2, X_18_4_1, X_18_4_2, X_18_5_1, X_18_5_2, X_18_6_1, X_18_6_2, X_18_7_1, X_18_7_2, X_18_8_1, X_18_8_2, X_18_9_1, X_18_9_2, X_18_10_1, X_18_10_2, X_18_11_1, X_18_11_2, X_18_12_1, X_18_12_2, X_18_13_1, X_18_13_2, X_18_14_1, X_18_14_2, X_18_15_1, X_18_15_2, X_18_16_1, X_18_16_2, X_18_17_1, X_18_17_2, X_19_1_1, X_19_1_2, X_19_2_1, X_19_2_2, X_19_3_1, X_19_3_2, X_19_4_1, X_19_4_2, X_19_5_1, X_19_5_2, X_19_6_1, X_19_6_2, X_19_7_1, X_19_7_2, X_19_8_1, X_19_8_2, X_19_9_1, X_19_9_2, X_19_10_1, X_19_10_2, X_19_11_1, X_19_11_2, X_19_12_1, X_19_12_2, X_19_13_1, X_19_13_2, X_19_14_1, X_19_14_2, X_19_15_1, X_19_15_2, X_19_16_1, X_19_16_2, X_19_17_1, X_19_17_2, X_19_18_1, X_19_18_2, X_20_1_1, X_20_1_2, X_20_2_1, X_20_2_2, X_20_3_1, X_20_3_2, X_20_4_1, X_20_4_2, X_20_5_1, X_20_5_2, X_20_6_1, X_20_6_2, X_20_7_1, X_20_7_2, X_20_8_1, X_20_8_2, X_20_9_1, X_20_9_2, X_20_10_1, X_20_10_2, X_20_11_1, X_20_11_2, X_20_12_1, X_20_12_2, X_20_13_1, X_20_13_2, X_20_14_1, X_20_14_2, X_20_15_1, X_20_15_2, X_20_16_1, X_20_16_2, X_20_17_1, X_20_17_2, X_20_18_1, X_20_18_2, X_20_19_1, X_20_19_2, X_21_1_1, X_21_1_2, X_21_2_1, X_21_2_2, X_21_3_1, X_21_3_2, X_21_4_1, X_21_4_2, X_21_5_1, X_21_5_2, X_21_6_1, X_21_6_2, X_21_7_1, X_21_7_2, X_21_8_1, X_21_8_2, X_21_9_1, X_21_9_2, X_21_10_1, X_21_10_2, X_21_11_1, X_21_11_2, X_21_12_1, X_21_12_2, X_21_13_1, X_21_13_2, X_21_14_1, X_21_14_2, X_21_15_1, X_21_15_2, X_21_16_1, X_21_16_2, X_21_17_1, X_21_17_2, X_21_18_1, X_21_18_2, X_21_19_1, X_21_19_2, X_21_20_1, X_21_20_2, Y_11_1, Y_11_2, Y_12_1, Y_12_2, Y_13_1, Y_13_2, Y_14_1, Y_14_2, Y_15_1, Y_15_2, Y_16_1, Y_16_2, Y_17_1, Y_17_2, Y_18_1, Y_18_2, Y_19_1, Y_19_2, Y_20_1, Y_20_2, Y_21_1, Y_21_2;



